(set-logic HORN)
(set-info :source |
    Benchmark: C_VC
    Output by Princess (http://www.philipp.ruemmer.org/princess.shtml)
|)
(set-info :status sat)
;===============================================================================
; Encoding of Heap sorts and operations
;-------------------------------------------------------------------------------
(define-sort Addr() Int)
(declare-datatypes ((HeapObject 0) (node 0))
                   (((O_Int (getInt Int)) (O_UInt (getUInt Int)) (O_Addr (getAddr Addr)) (O_node (getnode node)) (defObj))
                   ((node (data Int) (next Addr) (prev Addr)))))
(declare-datatypes ((AllocResHeap 0) (Heap 0))
                   (((AllocResHeap   (newHeap Heap) (newAddr Addr)))
                    ((HeapCtor (HeapSize Int)
                               (HeapContents (Array Addr HeapObject))))))
(define-fun nullAddr  () Addr 0)
(define-fun valid     ((h Heap) (p Addr)) Bool
  (and (>= (HeapSize h) p) (> p 0)))
(define-fun emptyHeap () Heap (
  HeapCtor 0 (( as const (Array Addr HeapObject)) defObj)))
(define-fun read ((h Heap) (p Addr)) HeapObject
  (ite (valid h p)
       (select (HeapContents h) p)
       defObj))
(define-fun write ((h Heap) (p Addr) (o HeapObject)) Heap
  (ite (valid h p)
       (HeapCtor (HeapSize h) (store (HeapContents h) p o))
       h))
(define-fun alloc   ((h Heap) (o HeapObject)) AllocResHeap
  (AllocResHeap (HeapCtor (+ 1 (HeapSize h))
                    (store (HeapContents h) (+ 1 (HeapSize h)) o))
          (+ 1 (HeapSize h))))

;===============================================================================
(declare-fun inv_main12 (Heap Int Int Int Int Addr Addr) Bool)
(declare-fun inv_main15 (Heap Int Int Int Int Addr Addr Int) Bool)
(declare-fun inv_main18 (Heap Int Int Int Int Addr Addr) Bool)
(declare-fun inv_main19 (Heap Int Int Int Int Addr Addr) Bool)
(declare-fun inv_main22 (Heap Int Int Int Int Addr Addr) Bool)
(declare-fun inv_main34 (Heap Int Int Addr Int Int Int Int Addr) Bool)
(declare-fun inv_main37 (Heap Int Int Addr Int Int Int Int Addr Int) Bool)
(declare-fun inv_main4 (Heap Int Int) Bool)
(declare-fun inv_main40 (Heap Int Int Addr Int Int Int Int Addr) Bool)
(declare-fun inv_main41 (Heap Int Int Addr Int Int Int Int Addr) Bool)
(declare-fun inv_main45 (Heap Int Int Addr Int Int Int Addr Addr Addr) Bool)
(declare-fun inv_main48 (Heap Int Int Addr Int Int Int Addr Addr Addr) Bool)
(declare-fun inv_main51 (Heap Int Int Addr Int Int Int Addr Addr Addr) Bool)
(declare-fun inv_main52 (Heap Int Int Addr Int Int Int Addr Addr Addr) Bool)
(declare-fun inv_main53 (Heap Int Int Addr Int Int Int Addr Addr Addr) Bool)
(declare-fun inv_main54 (Heap Int Int Addr Int Int Int Addr Addr Addr) Bool)
(declare-fun inv_main56 (Heap Int Int Addr Int Int Int Addr Addr Addr) Bool)
(declare-fun inv_main60 (Heap Int Int Addr Int Int Int Addr Addr Addr) Bool)
(declare-fun inv_main63 (Heap Int Int Addr Addr Int) Bool)
(declare-fun inv_main65 (Heap Int Int Addr Addr Int) Bool)
(declare-fun inv_main66 (Heap Int Int Addr Addr Int Addr) Bool)
(declare-fun inv_main78 (Heap Int Int Addr Addr Int Addr) Bool)
(declare-fun inv_main8 (Heap Int Int Int Int Addr) Bool)
(declare-fun inv_main81 (Heap Int Int Addr Addr Int) Bool)
(assert (forall ((var0 Heap)) (or (not (= var0 emptyHeap)) (inv_main4 var0 2 1))))
(assert (forall ((var0 Int) (var1 Addr) (var2 Addr) (var3 Int) (var4 Int) (var5 Heap)) (or (not (and (inv_main65 var5 var4 var3 var2 var1 var0) (is-O_node (read var5 var1)))) (inv_main66 var5 var4 var3 var2 var1 var0 (next (getnode (read var5 var1)))))))
(assert (forall ((var0 Addr) (var1 Addr) (var2 Addr) (var3 Int) (var4 Int) (var5 Int) (var6 Addr) (var7 Int) (var8 Int) (var9 Heap)) (or (not (and (inv_main45 var9 var8 var7 var6 var5 var4 var3 var2 var1 var0) (<= 0 (+ var3 (- 1))))) (inv_main48 var9 var8 var7 var6 var5 var4 var3 var2 var0 var0))))
(assert (forall ((var0 Addr) (var1 Int) (var2 Addr) (var3 Addr) (var4 Int) (var5 Int) (var6 Heap)) (or (not (and (inv_main66 var6 var5 var4 var3 var2 var1 var0) (and (is-O_node (read var6 var2)) (not (= var4 (data (getnode (read var6 var2)))))))) (inv_main81 var6 var5 var4 var3 var2 var1))))
(assert (forall ((var0 Int) (var1 Addr) (var2 Addr) (var3 Int) (var4 Int) (var5 Heap)) (or (not (and (inv_main63 var5 var4 var3 var2 var1 var0) (and (not (= var0 (+ 1 var4))) (= var1 nullAddr)))) (inv_main81 var5 var4 var3 var2 var1 var0))))
(assert (forall ((var0 Addr) (var1 Addr) (var2 Addr) (var3 Int) (var4 Int) (var5 Int) (var6 Addr) (var7 Int) (var8 Int) (var9 Heap)) (or (not (and (inv_main45 var9 var8 var7 var6 var5 var4 var3 var2 var1 var0) (and (= var1 nullAddr) (not (<= 0 (+ var3 (- 1))))))) (inv_main52 var9 var8 var7 var6 var5 var4 var3 var2 var1 var0))))
(assert (forall ((var0 Int) (var1 Addr) (var2 Addr) (var3 Int) (var4 Int) (var5 Int) (var6 Int) (var7 Heap)) (or (not (inv_main15 var7 var6 var5 var4 var3 var2 var1 var0)) (inv_main15 var7 var6 var5 var4 var3 var2 var1 var0))))
(assert (forall ((var0 Addr) (var1 Int) (var2 Int) (var3 Int) (var4 Int) (var5 node) (var6 Heap) (var7 Addr) (var8 Addr) (var9 Int) (var10 Int) (var11 Int) (var12 Int) (var13 Heap)) (or (not (and (inv_main8 var13 var12 var11 var10 var9 var8) (and (and (= nullAddr var7) (and (and (and (and (and (and (= var6 (newHeap (alloc var13 (O_node var5)))) (= var4 var12)) (= var3 var11)) (= var2 var10)) (= var1 var9)) (= var0 var8)) (= var7 (newAddr (alloc var13 (O_node var5)))))) (<= 0 (+ var10 (- 1)))))) (inv_main15 var6 var4 var3 var2 var1 var0 var7 1))))
(assert (forall ((var0 Addr) (var1 Int) (var2 Int) (var3 Int) (var4 Int) (var5 Heap) (var6 Addr) (var7 Addr) (var8 Addr) (var9 Int) (var10 Int) (var11 Int) (var12 Int) (var13 Heap)) (or (not (and (inv_main19 var13 var12 var11 var10 var9 var8 var7) (and (and (not (= var6 nullAddr)) (is-O_node (read var13 var7))) (and (and (and (and (and (and (= var5 (write var13 var7 (O_node (node (data (getnode (read var13 var7))) (next (getnode (read var13 var7))) nullAddr)))) (= var4 var12)) (= var3 var11)) (= var2 var10)) (= var1 var9)) (= var6 var8)) (= var0 var7))))) (inv_main22 var5 var4 var3 var2 var1 var6 var0))))
(assert (forall ((var0 Addr) (var1 Addr) (var2 Addr) (var3 Int) (var4 Int) (var5 Int) (var6 Int) (var7 Int) (var8 Heap) (var9 Addr) (var10 Addr) (var11 Addr) (var12 Addr) (var13 Int) (var14 Int) (var15 Int) (var16 Addr) (var17 Int) (var18 Int) (var19 Heap)) (or (not (and (inv_main52 var19 var18 var17 var16 var15 var14 var13 var12 var11 var10) (and (and (not (= var9 nullAddr)) (is-O_node (read var19 var12))) (and (and (and (and (and (and (and (and (and (= var8 (write var19 var12 (O_node (node (data (getnode (read var19 var12))) var16 (prev (getnode (read var19 var12))))))) (= var7 var18)) (= var6 var17)) (= var9 var16)) (= var5 var15)) (= var4 var14)) (= var3 var13)) (= var2 var12)) (= var1 var11)) (= var0 var10))))) (inv_main60 var8 var7 var6 var9 var5 var4 var3 var2 var1 var0))))
(assert (forall ((var0 Addr) (var1 Addr) (var2 Int) (var3 Int) (var4 Int) (var5 Int) (var6 Heap)) (or (not (and (inv_main12 var6 var5 var4 var3 var2 var1 var0) (is-O_node (read var6 var0)))) (inv_main18 (write var6 var0 (O_node (node var2 (next (getnode (read var6 var0))) (prev (getnode (read var6 var0)))))) var5 var4 var3 var2 var1 var0))))
(assert (forall ((var0 Addr) (var1 Addr) (var2 Addr) (var3 Int) (var4 Int) (var5 Int) (var6 Addr) (var7 Int) (var8 Int) (var9 Heap)) (or (not (and (inv_main51 var9 var8 var7 var6 var5 var4 var3 var2 var1 var0) (is-O_node (read var9 var1)))) (inv_main53 (write var9 var1 (O_node (node (data (getnode (read var9 var1))) var2 (prev (getnode (read var9 var1)))))) var8 var7 var6 var5 var4 var3 var2 var1 var0))))
(assert (forall ((var0 Addr) (var1 Addr) (var2 Int) (var3 Int) (var4 Int) (var5 Int) (var6 Heap)) (or (not (and (inv_main18 var6 var5 var4 var3 var2 var1 var0) (is-O_node (read var6 var0)))) (inv_main19 (write var6 var0 (O_node (node (data (getnode (read var6 var0))) var1 (prev (getnode (read var6 var0)))))) var5 var4 var3 var2 var1 var0))))
(assert (forall ((var0 Int) (var1 Addr) (var2 Int) (var3 Int) (var4 Int) (var5 Int) (var6 Addr) (var7 Int) (var8 Int) (var9 Heap)) (or (not (inv_main37 var9 var8 var7 var6 var5 var4 var3 var2 var1 var0)) (inv_main37 var9 var8 var7 var6 var5 var4 var3 var2 var1 var0))))
(assert (forall ((var0 Int) (var1 Int) (var2 Int) (var3 Int) (var4 Int) (var5 Int) (var6 Int) (var7 Addr) (var8 Addr) (var9 Int) (var10 Int) (var11 Int) (var12 Int) (var13 node) (var14 Heap) (var15 Heap) (var16 Addr) (var17 Addr) (var18 Int) (var19 Int) (var20 Int) (var21 Int) (var22 Heap) (var23 Int)) (or (not (and (inv_main8 var22 var21 var20 var19 var18 var17) (and (and (and (= nullAddr var16) (and (and (and (and (and (and (and (and (= var15 (newHeap (alloc var14 (O_node var13)))) (= var12 var11)) (= var10 var9)) (= var8 var7)) (= var6 var5)) (= var4 var3)) (= var2 var1)) (= var0 var3)) (= var16 (newAddr (alloc var14 (O_node var13)))))) (and (and (and (and (and (and (= var14 var22) (= var11 var21)) (= var9 var20)) (= var7 var17)) (= var5 3)) (= var3 var20)) (and (and (and (and (<= 0 (+ (+ 2 (* (- 1) (+ var21 (* (- 2) var23)))) (- 1))) (<= 0 (+ (+ 2 (* 1 (+ var21 (* (- 2) var23)))) (- 1)))) (or (not (<= 0 (+ (+ var21 (* (- 2) var23)) (- 1)))) (<= 0 (+ var21 (- 1))))) (or (not (<= 0 (+ (* (- 1) (+ var21 (* (- 2) var23))) (- 1)))) (<= 0 (+ (* (- 1) var21) (- 1))))) (= var1 var23)))) (not (<= 0 (+ var19 (- 1))))))) (inv_main37 var15 var12 var10 var8 var6 var4 var2 var0 var16 1))))
(assert (forall ((var0 Addr) (var1 Int) (var2 Int) (var3 Int) (var4 Int) (var5 Addr) (var6 Int) (var7 Int) (var8 Heap)) (or (not (and (inv_main40 var8 var7 var6 var5 var4 var3 var2 var1 var0) (is-O_node (read var8 var0)))) (inv_main41 (write var8 var0 (O_node (node (data (getnode (read var8 var0))) (next (getnode (read var8 var0))) nullAddr))) var7 var6 var5 var4 var3 var2 var1 var0))))
(assert (forall ((var0 Addr) (var1 Addr) (var2 Int) (var3 Int) (var4 Int) (var5 Addr) (var6 Int) (var7 Int) (var8 Heap) (var9 Addr) (var10 Addr) (var11 Addr) (var12 Addr) (var13 Int) (var14 Int) (var15 Int) (var16 Addr) (var17 Int) (var18 Int) (var19 Heap)) (or (not (and (inv_main54 var19 var18 var17 var16 var15 var14 var13 var12 var11 var10) (and (and (not (= var9 nullAddr)) (is-O_node (read var19 var12))) (and (and (and (and (and (and (and (and (and (= var8 (write var19 var12 (O_node (node (data (getnode (read var19 var12))) var10 (prev (getnode (read var19 var12))))))) (= var7 var18)) (= var6 var17)) (= var5 var16)) (= var4 var15)) (= var3 var14)) (= var2 var13)) (= var1 var12)) (= var0 var11)) (= var9 var10))))) (inv_main56 var8 var7 var6 var5 var4 var3 var2 var1 var0 var9))))
(assert (forall ((var0 Addr) (var1 Int) (var2 Addr) (var3 Addr) (var4 Int) (var5 Int) (var6 Heap) (var7 Addr) (var8 Addr) (var9 Int) (var10 Addr) (var11 Addr) (var12 Int) (var13 Int) (var14 Heap) (var15 Addr) (var16 Addr) (var17 Int) (var18 Addr) (var19 Addr) (var20 Int) (var21 Int) (var22 Heap)) (or (not (and (inv_main78 var22 var21 var20 var19 var18 var17 var16) (and (not (= var15 nullAddr)) (and (and (is-O_node (read var22 var16)) (and (and (and (and (and (and (and (= var14 var22) (= var13 var21)) (= var12 var20)) (= var11 var19)) (= var10 var18)) (= var9 var17)) (= var8 var16)) (= var7 (next (getnode (read var22 var16)))))) (and (and (and (and (and (and (and (= var6 (write var14 var8 defObj)) (= var5 var13)) (= var4 var12)) (= var3 var11)) (= var2 var10)) (= var1 var9)) (= var0 var8)) (= var15 var7)))))) (inv_main78 var6 var5 var4 var3 var2 var1 var15))))
(assert (forall ((var0 Int) (var1 Addr) (var2 Addr) (var3 Int) (var4 Int) (var5 Heap)) (or (not (and (inv_main63 var5 var4 var3 var2 var1 var0) (and (not (= var2 nullAddr)) (and (= var0 (+ 1 var4)) (= var1 nullAddr))))) (inv_main78 var5 var4 var3 var2 var1 var0 var2))))
(assert (forall ((var0 Addr) (var1 Addr) (var2 Addr) (var3 Addr) (var4 Int) (var5 Int) (var6 Int) (var7 Addr) (var8 Int) (var9 Int) (var10 Heap) (var11 Addr) (var12 Addr) (var13 Addr) (var14 Int) (var15 Int) (var16 Int) (var17 Addr) (var18 Int) (var19 Int) (var20 Heap)) (or (not (and (inv_main48 var20 var19 var18 var17 var16 var15 var14 var13 var12 var11) (and (is-O_node (read var20 var11)) (and (and (and (and (and (and (and (and (and (and (= var10 var20) (= var9 var19)) (= var8 var18)) (= var7 var17)) (= var6 var16)) (= var5 var15)) (= var4 var14)) (= var3 var13)) (= var2 var12)) (= var1 var11)) (= var0 (next (getnode (read var20 var11)))))))) (inv_main45 var10 var9 var8 var7 var6 var5 (+ var4 (- 1)) var3 var2 var0))))
(assert (forall ((var0 Int) (var1 Addr) (var2 Addr) (var3 Addr) (var4 Int) (var5 Int) (var6 Int) (var7 Int) (var8 Int) (var9 Int) (var10 Addr) (var11 Addr) (var12 Int) (var13 Int) (var14 Int) (var15 Int) (var16 Heap) (var17 Heap) (var18 Addr) (var19 Int) (var20 Int) (var21 Int) (var22 Int) (var23 Addr) (var24 Int) (var25 Int) (var26 Heap)) (or (not (and (inv_main41 var26 var25 var24 var23 var22 var21 var20 var19 var18) (and (and (and (and (and (and (and (and (and (= var17 var16) (= var15 var14)) (= var13 var12)) (= var11 var10)) (= var9 var8)) (= var7 var6)) (= var5 var4)) (= var3 var2)) (= var1 nullAddr)) (and (is-O_node (read var26 var18)) (and (and (and (and (and (and (and (and (= var16 (write var26 var18 (O_node (node var19 (next (getnode (read var26 var18))) (prev (getnode (read var26 var18))))))) (= var14 var25)) (= var12 var24)) (= var10 var23)) (= var8 var22)) (= var6 var21)) (= var4 var20)) (= var0 var19)) (= var2 var18)))))) (inv_main45 var17 var15 var13 var11 var9 var7 var5 var3 var1 var11))))
(assert (forall ((var0 Int) (var1 Addr) (var2 Addr) (var3 Int) (var4 Int) (var5 Heap)) (or (not (and (inv_main63 var5 var4 var3 var2 var1 var0) (not (= var1 nullAddr)))) (inv_main65 var5 var4 var3 var2 var1 var0))))
(assert (forall ((var0 Int) (var1 Int) (var2 Int) (var3 Int) (var4 Int) (var5 Int) (var6 Int) (var7 Addr) (var8 Addr) (var9 Int) (var10 Int) (var11 Int) (var12 Int) (var13 node) (var14 Heap) (var15 Heap) (var16 Addr) (var17 Addr) (var18 Int) (var19 Int) (var20 Int) (var21 Int) (var22 Heap) (var23 Int)) (or (not (and (inv_main8 var22 var21 var20 var19 var18 var17) (and (and (and (not (= nullAddr var16)) (and (and (and (and (and (and (and (and (= var15 (newHeap (alloc var14 (O_node var13)))) (= var12 var11)) (= var10 var9)) (= var8 var7)) (= var6 var5)) (= var4 var3)) (= var2 var1)) (= var0 var3)) (= var16 (newAddr (alloc var14 (O_node var13)))))) (and (and (and (and (and (and (= var14 var22) (= var11 var21)) (= var9 var20)) (= var7 var17)) (= var5 3)) (= var3 var20)) (and (and (and (and (<= 0 (+ (+ 2 (* (- 1) (+ var21 (* (- 2) var23)))) (- 1))) (<= 0 (+ (+ 2 (* 1 (+ var21 (* (- 2) var23)))) (- 1)))) (or (not (<= 0 (+ (+ var21 (* (- 2) var23)) (- 1)))) (<= 0 (+ var21 (- 1))))) (or (not (<= 0 (+ (* (- 1) (+ var21 (* (- 2) var23))) (- 1)))) (<= 0 (+ (* (- 1) var21) (- 1))))) (= var1 var23)))) (not (<= 0 (+ var19 (- 1))))))) (inv_main34 var15 var12 var10 var8 var6 var4 var2 var0 var16))))
(assert (forall ((var0 Addr) (var1 Addr) (var2 Addr) (var3 Int) (var4 Int) (var5 Int) (var6 Addr) (var7 Int) (var8 Int) (var9 Heap)) (or (not (and (inv_main45 var9 var8 var7 var6 var5 var4 var3 var2 var1 var0) (and (not (= var1 nullAddr)) (not (<= 0 (+ var3 (- 1))))))) (inv_main51 var9 var8 var7 var6 var5 var4 var3 var2 var1 var0))))
(assert (forall ((var0 Addr) (var1 Int) (var2 Int) (var3 Int) (var4 Int) (var5 node) (var6 Heap) (var7 Addr) (var8 Addr) (var9 Int) (var10 Int) (var11 Int) (var12 Int) (var13 Heap)) (or (not (and (inv_main8 var13 var12 var11 var10 var9 var8) (and (and (not (= nullAddr var7)) (and (and (and (and (and (and (= var6 (newHeap (alloc var13 (O_node var5)))) (= var4 var12)) (= var3 var11)) (= var2 var10)) (= var1 var9)) (= var0 var8)) (= var7 (newAddr (alloc var13 (O_node var5)))))) (<= 0 (+ var10 (- 1)))))) (inv_main12 var6 var4 var3 var2 var1 var0 var7))))
(assert (forall ((var0 Addr) (var1 Addr) (var2 Int) (var3 Int) (var4 Int) (var5 Int) (var6 Heap) (var7 Addr) (var8 Addr) (var9 Int) (var10 Int) (var11 Int) (var12 Int) (var13 Heap)) (or (not (and (inv_main22 var13 var12 var11 var10 var9 var8 var7) (and (is-O_node (read var13 var8)) (and (and (and (and (and (and (= var6 (write var13 var8 (O_node (node (data (getnode (read var13 var8))) (next (getnode (read var13 var8))) var7)))) (= var5 var12)) (= var4 var11)) (= var3 var10)) (= var2 var9)) (= var1 var8)) (= var0 var7))))) (inv_main8 var6 var5 var4 (+ var3 (- 1)) var2 var0))))
(assert (forall ((var0 Addr) (var1 Int) (var2 Int) (var3 Int) (var4 Int) (var5 Heap) (var6 Addr) (var7 Addr) (var8 Addr) (var9 Int) (var10 Int) (var11 Int) (var12 Int) (var13 Heap)) (or (not (and (inv_main19 var13 var12 var11 var10 var9 var8 var7) (and (and (= var6 nullAddr) (is-O_node (read var13 var7))) (and (and (and (and (and (and (= var5 (write var13 var7 (O_node (node (data (getnode (read var13 var7))) (next (getnode (read var13 var7))) nullAddr)))) (= var4 var12)) (= var3 var11)) (= var2 var10)) (= var1 var9)) (= var6 var8)) (= var0 var7))))) (inv_main8 var5 var4 var3 (+ var2 (- 1)) var1 var0))))
(assert (forall ((var0 Int) (var1 Int) (var2 Heap)) (or (not (inv_main4 var2 var1 var0)) (inv_main8 var2 var1 var0 var1 var0 nullAddr))))
(assert (forall ((var0 Addr) (var1 Int) (var2 Int) (var3 Int) (var4 Int) (var5 Addr) (var6 Int) (var7 Int) (var8 Heap)) (or (not (and (inv_main34 var8 var7 var6 var5 var4 var3 var2 var1 var0) (is-O_node (read var8 var0)))) (inv_main40 (write var8 var0 (O_node (node (data (getnode (read var8 var0))) nullAddr (prev (getnode (read var8 var0)))))) var7 var6 var5 var4 var3 var2 var1 var0))))
(assert (forall ((var0 Addr) (var1 Int) (var2 Addr) (var3 Addr) (var4 Int) (var5 Int) (var6 Heap)) (or (not (and (inv_main66 var6 var5 var4 var3 var2 var1 var0) (and (is-O_node (read var6 var2)) (= var4 (data (getnode (read var6 var2))))))) (inv_main63 var6 var5 var4 var3 var0 (+ var1 1)))))
(assert (forall ((var0 Int) (var1 Int) (var2 Int) (var3 Addr) (var4 Int) (var5 Int) (var6 Heap) (var7 Addr) (var8 Addr) (var9 Addr) (var10 Int) (var11 Int) (var12 Int) (var13 Addr) (var14 Int) (var15 Int) (var16 Heap)) (or (not (and (inv_main56 var16 var15 var14 var13 var12 var11 var10 var9 var8 var7) (and (is-O_node (read var16 var7)) (and (and (and (and (and (and (= var6 (write var16 var7 (O_node (node (data (getnode (read var16 var7))) (next (getnode (read var16 var7))) var9)))) (= var5 var15)) (= var4 var14)) (= var3 var13)) (= var2 var12)) (= var1 var11)) (= var0 var10))))) (inv_main63 var6 var5 var4 var3 var3 0))))
(assert (forall ((var0 Addr) (var1 Addr) (var2 Int) (var3 Int) (var4 Int) (var5 Addr) (var6 Int) (var7 Int) (var8 Heap) (var9 Addr) (var10 Addr) (var11 Addr) (var12 Addr) (var13 Int) (var14 Int) (var15 Int) (var16 Addr) (var17 Int) (var18 Int) (var19 Heap)) (or (not (and (inv_main54 var19 var18 var17 var16 var15 var14 var13 var12 var11 var10) (and (and (= var9 nullAddr) (is-O_node (read var19 var12))) (and (and (and (and (and (and (and (and (and (= var8 (write var19 var12 (O_node (node (data (getnode (read var19 var12))) var10 (prev (getnode (read var19 var12))))))) (= var7 var18)) (= var6 var17)) (= var5 var16)) (= var4 var15)) (= var3 var14)) (= var2 var13)) (= var1 var12)) (= var0 var11)) (= var9 var10))))) (inv_main63 var8 var7 var6 var5 var5 0))))
(assert (forall ((var0 Addr) (var1 Addr) (var2 Addr) (var3 Int) (var4 Int) (var5 Int) (var6 Addr) (var7 Int) (var8 Int) (var9 Heap) (var10 Addr) (var11 Addr) (var12 Addr) (var13 Int) (var14 Int) (var15 Int) (var16 Addr) (var17 Int) (var18 Int) (var19 Heap)) (or (not (and (inv_main60 var19 var18 var17 var16 var15 var14 var13 var12 var11 var10) (and (is-O_node (read var19 var16)) (and (and (and (and (and (and (and (and (and (= var9 (write var19 var16 (O_node (node (data (getnode (read var19 var16))) (next (getnode (read var19 var16))) var12)))) (= var8 var18)) (= var7 var17)) (= var6 var16)) (= var5 var15)) (= var4 var14)) (= var3 var13)) (= var2 var12)) (= var1 var11)) (= var0 var10))))) (inv_main63 var9 var8 var7 var2 var2 0))))
(assert (forall ((var0 Addr) (var1 Addr) (var2 Addr) (var3 Int) (var4 Int) (var5 Int) (var6 Int) (var7 Int) (var8 Heap) (var9 Addr) (var10 Addr) (var11 Addr) (var12 Addr) (var13 Int) (var14 Int) (var15 Int) (var16 Addr) (var17 Int) (var18 Int) (var19 Heap)) (or (not (and (inv_main52 var19 var18 var17 var16 var15 var14 var13 var12 var11 var10) (and (and (= var9 nullAddr) (is-O_node (read var19 var12))) (and (and (and (and (and (and (and (and (and (= var8 (write var19 var12 (O_node (node (data (getnode (read var19 var12))) var16 (prev (getnode (read var19 var12))))))) (= var7 var18)) (= var6 var17)) (= var9 var16)) (= var5 var15)) (= var4 var14)) (= var3 var13)) (= var2 var12)) (= var1 var11)) (= var0 var10))))) (inv_main63 var8 var7 var6 var2 var2 0))))
(assert (forall ((var0 Addr) (var1 Addr) (var2 Addr) (var3 Int) (var4 Int) (var5 Int) (var6 Addr) (var7 Int) (var8 Int) (var9 Heap)) (or (not (and (inv_main53 var9 var8 var7 var6 var5 var4 var3 var2 var1 var0) (is-O_node (read var9 var2)))) (inv_main54 (write var9 var2 (O_node (node (data (getnode (read var9 var2))) (next (getnode (read var9 var2))) var1))) var8 var7 var6 var5 var4 var3 var2 var1 var0))))
(assert (forall ((var0 Addr) (var1 Addr) (var2 Int) (var3 Int) (var4 Int) (var5 Int) (var6 Heap)) (not (and (inv_main12 var6 var5 var4 var3 var2 var1 var0) (not (is-O_node (read var6 var0)))))))
(assert (forall ((var0 Addr) (var1 Addr) (var2 Int) (var3 Int) (var4 Int) (var5 Int) (var6 Heap)) (not (and (inv_main18 var6 var5 var4 var3 var2 var1 var0) (not (is-O_node (read var6 var0)))))))
(assert (forall ((var0 Addr) (var1 Addr) (var2 Int) (var3 Int) (var4 Int) (var5 Int) (var6 Heap)) (not (and (inv_main19 var6 var5 var4 var3 var2 var1 var0) (not (is-O_node (read var6 var0)))))))
(assert (forall ((var0 Addr) (var1 Addr) (var2 Int) (var3 Int) (var4 Int) (var5 Int) (var6 Heap)) (not (and (inv_main22 var6 var5 var4 var3 var2 var1 var0) (not (is-O_node (read var6 var1)))))))
(assert (forall ((var0 Addr) (var1 Int) (var2 Int) (var3 Int) (var4 Int) (var5 Addr) (var6 Int) (var7 Int) (var8 Heap)) (not (and (inv_main34 var8 var7 var6 var5 var4 var3 var2 var1 var0) (not (is-O_node (read var8 var0)))))))
(assert (forall ((var0 Addr) (var1 Int) (var2 Int) (var3 Int) (var4 Int) (var5 Addr) (var6 Int) (var7 Int) (var8 Heap)) (not (and (inv_main40 var8 var7 var6 var5 var4 var3 var2 var1 var0) (not (is-O_node (read var8 var0)))))))
(assert (forall ((var0 Addr) (var1 Int) (var2 Int) (var3 Int) (var4 Int) (var5 Addr) (var6 Int) (var7 Int) (var8 Heap)) (not (and (inv_main41 var8 var7 var6 var5 var4 var3 var2 var1 var0) (not (is-O_node (read var8 var0)))))))
(assert (forall ((var0 Addr) (var1 Addr) (var2 Addr) (var3 Int) (var4 Int) (var5 Int) (var6 Addr) (var7 Int) (var8 Int) (var9 Heap)) (not (and (inv_main48 var9 var8 var7 var6 var5 var4 var3 var2 var1 var0) (not (is-O_node (read var9 var0)))))))
(assert (forall ((var0 Addr) (var1 Addr) (var2 Addr) (var3 Int) (var4 Int) (var5 Int) (var6 Addr) (var7 Int) (var8 Int) (var9 Heap)) (not (and (inv_main51 var9 var8 var7 var6 var5 var4 var3 var2 var1 var0) (not (is-O_node (read var9 var1)))))))
(assert (forall ((var0 Addr) (var1 Addr) (var2 Addr) (var3 Int) (var4 Int) (var5 Int) (var6 Addr) (var7 Int) (var8 Int) (var9 Heap)) (not (and (inv_main53 var9 var8 var7 var6 var5 var4 var3 var2 var1 var0) (not (is-O_node (read var9 var2)))))))
(assert (forall ((var0 Addr) (var1 Addr) (var2 Addr) (var3 Int) (var4 Int) (var5 Int) (var6 Addr) (var7 Int) (var8 Int) (var9 Heap)) (not (and (inv_main54 var9 var8 var7 var6 var5 var4 var3 var2 var1 var0) (not (is-O_node (read var9 var2)))))))
(assert (forall ((var0 Addr) (var1 Addr) (var2 Addr) (var3 Int) (var4 Int) (var5 Int) (var6 Addr) (var7 Int) (var8 Int) (var9 Heap)) (not (and (inv_main56 var9 var8 var7 var6 var5 var4 var3 var2 var1 var0) (not (is-O_node (read var9 var0)))))))
(assert (forall ((var0 Addr) (var1 Addr) (var2 Addr) (var3 Int) (var4 Int) (var5 Int) (var6 Addr) (var7 Int) (var8 Int) (var9 Heap)) (not (and (inv_main52 var9 var8 var7 var6 var5 var4 var3 var2 var1 var0) (not (is-O_node (read var9 var2)))))))
(assert (forall ((var0 Addr) (var1 Addr) (var2 Addr) (var3 Int) (var4 Int) (var5 Int) (var6 Addr) (var7 Int) (var8 Int) (var9 Heap)) (not (and (inv_main60 var9 var8 var7 var6 var5 var4 var3 var2 var1 var0) (not (is-O_node (read var9 var6)))))))
(assert (forall ((var0 Int) (var1 Addr) (var2 Addr) (var3 Int) (var4 Int) (var5 Heap)) (not (and (inv_main65 var5 var4 var3 var2 var1 var0) (not (is-O_node (read var5 var1)))))))
(assert (forall ((var0 Addr) (var1 Int) (var2 Addr) (var3 Addr) (var4 Int) (var5 Int) (var6 Heap)) (not (and (inv_main66 var6 var5 var4 var3 var2 var1 var0) (not (is-O_node (read var6 var2)))))))
(assert (forall ((var0 Addr) (var1 Int) (var2 Addr) (var3 Addr) (var4 Int) (var5 Int) (var6 Heap)) (not (and (inv_main78 var6 var5 var4 var3 var2 var1 var0) (not (is-O_node (read var6 var0)))))))
(assert (forall ((var0 Int) (var1 Addr) (var2 Addr) (var3 Int) (var4 Int) (var5 Heap)) (not (inv_main81 var5 var4 var3 var2 var1 var0))))
(check-sat)
